Version identifier: 22.1.1.0 | 2022-11-28 | 9160aff4d
CPXPARAM_ClockType                               1
CPXPARAM_Read_DataCheck                          1
CPXPARAM_Threads                                 1
CPXPARAM_Simplex_Tolerances_Optimality           1.0000000000000001e-09
CPXPARAM_TimeLimit                               7200
CPXPARAM_MIP_Tolerances_AbsMIPGap                0
CPXPARAM_MIP_Tolerances_MIPGap                   0
CPXPARAM_MIP_Tolerances_Integrality              0
Tried aggregator 5 times.
MIQP Presolve eliminated 12670 rows and 2236 columns.
MIQP Presolve modified 8 coefficients.
Aggregator did 988 substitutions.
Reduced MIQP has 4714 rows, 1896 columns, and 13956 nonzeros.
Reduced MIQP has 1706 binaries, 190 generals, 0 SOSs, and 0 indicators.
Reduced MIQP objective Q matrix has 190 nonzeros.
Presolve time = 0.04 sec. (31.47 ticks)
Probing time = 0.01 sec. (2.46 ticks)
Tried aggregator 1 time.
Reduced MIQP has 4714 rows, 1896 columns, and 13956 nonzeros.
Reduced MIQP has 1706 binaries, 190 generals, 0 SOSs, and 0 indicators.
Reduced MIQP objective Q matrix has 190 nonzeros.
Presolve time = 0.01 sec. (7.61 ticks)
Classifier predicts products in MIQP should be linearized.
Probing time = 0.00 sec. (2.42 ticks)
Clique table members: 4246.
MIP emphasis: balance optimality and feasibility.
MIP search method: dynamic search.
Parallel mode: none, using 1 thread.
Root relaxation solution time = 0.92 sec. (917.02 ticks)

        Nodes                                         Cuts/
   Node  Left     Objective  IInf  Best Integer    Best Bound    ItCnt     Gap

      0     0     1187.5000  1144                   1187.5000       13         
      0     0     1187.5000  1148                   Cuts: 130    11682         
*     0+    0                         1040.0000     1187.5000            14.18%
      0     0     1187.5000  1191     1040.0000     Cuts: 415   114437   14.18%
      0     0     1187.5000  1212     1040.0000     Cuts: 509   175322   14.18%
*     0+    0                         1056.0000     1187.5000            12.45%
*     0+    0                         1062.0000     1187.5000            11.82%
*     0+    0                         1074.0000     1187.5000            10.57%
      0     0        cutoff           1074.0000     1187.5000   175322   10.57%
*     0+    0                         1076.0000     1187.5000            10.36%
*     0+    0                         1082.0000     1187.5000             9.75%
*     0+    0                         1084.0000     1187.5000             9.55%
      0     0        cutoff           1084.0000     1187.5000   175322    9.55%
      0     2     1187.5000  1211     1084.0000     1187.5000   175322    9.55%
Elapsed time = 80.92 sec. (44099.05 ticks, tree = 0.01 MB, solutions = 7)
      1     3     1187.5000  1281     1084.0000     1187.5000   210857    9.55%
      2     4     1187.5000  1245     1084.0000     1187.5000   271483    9.55%
      3     5     1187.5000  1242     1084.0000     1187.5000   372432    9.55%
      5     5     1187.4500  1328     1084.0000     1187.5000   470698    9.55%
      6     6     1187.4500  1309     1084.0000     1187.5000   576896    9.55%
      7     7     1187.4500  1296     1084.0000     1187.5000   681742    9.55%
      8     6    infeasible           1084.0000     1187.5000   690500    9.55%
      9     7   1.00000e+37  1067     1084.0000     1187.5000   699480    9.55%
     10     8     1181.2500  1232     1084.0000     1187.5000   811113    9.55%
     12     8    infeasible           1084.0000     1187.5000   823254    9.55%
Elapsed time = 321.37 sec. (164090.67 ticks, tree = 0.02 MB, solutions = 7)
     13     7    infeasible           1084.0000     1187.5000   839178    9.55%
     14     6    infeasible           1084.0000     1187.5000   852674    9.55%
     15     7     1187.5000  1269     1084.0000     1187.5000   987789    9.55%
     16     8     1187.5000  1357     1084.0000     1187.5000  1002125    9.55%
     17     9     1187.5000  1257     1084.0000     1187.5000  1116720    9.55%
     18    10     1187.5000  1280     1084.0000     1187.5000  1310959    9.55%
     19    11     1187.5000  1338     1084.0000     1187.5000  1447898    9.55%
     20    12     1187.5000  1211     1084.0000     1187.5000  1529417    9.55%
     21    13     1187.5000  1227     1084.0000     1187.5000  1601746    9.55%
     22    14     1187.5000  1329     1084.0000     1187.5000  1700169    9.55%
Elapsed time = 574.84 sec. (295386.37 ticks, tree = 0.02 MB, solutions = 7)
     23    15     1187.5000  1309     1084.0000     1187.5000  1787236    9.55%
     24    16     1187.4814  1335     1084.0000     1187.5000  1805554    9.55%
     25    17     1187.4427  1326     1084.0000     1187.5000  1813584    9.55%
     26    18     1187.4223  1316     1084.0000     1187.5000  1819905    9.55%
     27    19     1187.4099  1320     1084.0000     1187.5000  1896504    9.55%
     28    20     1187.3853  1439     1084.0000     1187.5000  1909053    9.55%
     29    21     1187.3659  1395     1084.0000     1187.5000  1919824    9.55%
     30    22     1187.2143  1348     1084.0000     1187.5000  1953677    9.55%
     31    23     1187.2143  1231     1084.0000     1187.5000  2027582    9.55%
     32    24     1187.2106  1379     1084.0000     1187.5000  2037994    9.55%
Elapsed time = 690.97 sec. (355194.28 ticks, tree = 0.03 MB, solutions = 7)
     33    25     1187.2062  1306     1084.0000     1187.5000  2103075    9.55%
     34    26     1187.2062  1377     1084.0000     1187.5000  2143567    9.55%
     35    27     1187.2049  1401     1084.0000     1187.5000  2155816    9.55%
     36    28     1187.2050  1348     1084.0000     1187.5000  2209797    9.55%
     37    29     1187.2050  1374     1084.0000     1187.5000  2321250    9.55%
     38    30     1187.2050  1337     1084.0000     1187.5000  2376592    9.55%
     39    31     1187.2051  1312     1084.0000     1187.5000  2476250    9.55%
     40    32     1187.1978  1308     1084.0000     1187.5000  2581216    9.55%
     41    33     1187.1978  1342     1084.0000     1187.5000  2662790    9.55%
     42    34     1187.1978  1258     1084.0000     1187.5000  2687209    9.55%
Elapsed time = 906.86 sec. (465987.05 ticks, tree = 0.05 MB, solutions = 7)
     43    35     1187.1978  1314     1084.0000     1187.5000  2750732    9.55%
     44    36     1187.1978  1295     1084.0000     1187.5000  2838638    9.55%
     45    37     1187.1978  1313     1084.0000     1187.5000  2912751    9.55%
     46    38     1187.1978  1279     1084.0000     1187.5000  2987103    9.55%
     47    39     1187.1978  1275     1084.0000     1187.5000  3034641    9.55%
     48    40     1187.1879  1345     1084.0000     1187.5000  3143832    9.55%
     49    41     1187.1583  1400     1084.0000     1187.5000  3153990    9.55%
     50    42     1187.0735  1265     1084.0000     1187.5000  3555710    9.55%
     51    43     1187.0735  1271     1084.0000     1187.5000  3730123    9.55%
     52    44     1187.0735  1318     1084.0000     1187.5000  3793021    9.55%
Elapsed time = 1196.45 sec. (613146.92 ticks, tree = 0.06 MB, solutions = 7)
     53    45     1187.0735  1318     1084.0000     1187.5000  3889874    9.55%
     54    46     1187.0735  1285     1084.0000     1187.5000  4055289    9.55%
     55    47     1187.0735  1280     1084.0000     1187.5000  4181256    9.55%
     56    48     1187.0735  1222     1084.0000     1187.5000  4264447    9.55%
     57    49     1187.0735  1269     1084.0000     1187.5000  4322949    9.55%
     58    50     1187.0735  1260     1084.0000     1187.5000  4419362    9.55%
     59    51     1187.0700  1336     1084.0000     1187.5000  4478555    9.55%
     60    52     1187.0700  1228     1084.0000     1187.5000  4563068    9.55%
     61    53     1187.0700  1263     1084.0000     1187.5000  4687728    9.55%
     62    54     1187.0000  1240     1084.0000     1187.5000  4709968    9.55%
Elapsed time = 1428.23 sec. (730865.41 ticks, tree = 0.07 MB, solutions = 7)
     63    55     1186.9963  1302     1084.0000     1187.5000  4722228    9.55%
     64    56     1186.9286  1296     1084.0000     1187.5000  4830333    9.55%
     65    57     1186.9286  1275     1084.0000     1187.5000  4871391    9.55%
     66    58     1186.9286  1264     1084.0000     1187.5000  5037129    9.55%
     67    59     1186.9286  1243     1084.0000     1187.5000  5208068    9.55%
     68    60     1186.9286  1290     1084.0000     1187.5000  5357864    9.55%
     69    61     1186.9286  1254     1084.0000     1187.5000  5449567    9.55%
     70    62     1186.9286  1269     1084.0000     1187.5000  5526452    9.55%
     71    63     1186.8929  1325     1084.0000     1187.5000  5594700    9.55%
     72    64     1186.8929  1270     1084.0000     1187.5000  5693722    9.55%
Elapsed time = 1703.35 sec. (874642.34 ticks, tree = 0.09 MB, solutions = 7)
     73    65     1186.8929  1209     1084.0000     1187.5000  5797096    9.55%
     74    66     1186.8929  1206     1084.0000     1187.5000  5851656    9.55%
     75    67     1186.8929  1255     1084.0000     1187.5000  5940004    9.55%
     76    68     1186.8929  1263     1084.0000     1187.5000  6021756    9.55%
     77    69     1186.8929  1243     1084.0000     1187.5000  6062117    9.55%
     78    70     1186.8929  1257     1084.0000     1187.5000  6171609    9.55%
     79    71     1186.8929  1212     1084.0000     1187.5000  6264949    9.55%
     80    72     1186.8929  1312     1084.0000     1187.5000  6328386    9.55%
     81    73     1186.8929  1276     1084.0000     1187.5000  6372647    9.55%
     82    74     1186.8929  1278     1084.0000     1187.5000  6426938    9.55%
Elapsed time = 1902.60 sec. (975157.58 ticks, tree = 0.10 MB, solutions = 7)
     83    75     1186.8929  1282     1084.0000     1187.5000  6508067    9.55%
     84    76     1186.8929  1250     1084.0000     1187.5000  6576180    9.55%
     85    77     1186.8929  1243     1084.0000     1187.5000  6627955    9.55%
     86    78     1186.8929  1295     1084.0000     1187.5000  6688227    9.55%
     87    79     1186.8929  1251     1084.0000     1187.5000  6742314    9.55%
     88    80     1186.8929  1296     1084.0000     1187.5000  6794678    9.55%
     89    81     1186.8929  1230     1084.0000     1187.5000  6904418    9.55%
     90    82     1186.8929  1246     1084.0000     1187.5000  6958725    9.55%
     91    83     1186.8929  1236     1084.0000     1187.5000  7037947    9.55%
     92    84     1186.8929  1267     1084.0000     1187.5000  7109571    9.55%
Elapsed time = 2103.42 sec. (1077734.51 ticks, tree = 0.11 MB, solutions = 7)
     93    85     1186.8929  1230     1084.0000     1187.5000  7178704    9.55%
     94    86     1186.8929  1273     1084.0000     1187.5000  7276902    9.55%
     95    87     1186.8929  1248     1084.0000     1187.5000  7355555    9.55%
     96    88     1186.8929  1268     1084.0000     1187.5000  7394986    9.55%
     97    89     1186.8929  1219     1084.0000     1187.5000  7481578    9.55%
     98    90     1186.8929  1249     1084.0000     1187.5000  7555747    9.55%
     99    91     1186.8929  1242     1084.0000     1187.5000  7647990    9.55%
    100    92     1186.6429  1283     1084.0000     1187.5000  7724982    9.55%
    101    93     1186.6429  1266     1084.0000     1187.5000  7760789    9.55%
    102    94     1186.6429  1246     1084.0000     1187.5000  7807930    9.55%
Elapsed time = 2326.45 sec. (1191937.41 ticks, tree = 0.13 MB, solutions = 7)
    103    95     1186.6429  1245     1084.0000     1187.5000  7897144    9.55%
    104    96     1186.6429  1258     1084.0000     1187.5000  7985499    9.55%
    105    97     1186.6429  1261     1084.0000     1187.5000  8065387    9.55%
    106    98     1186.6429  1259     1084.0000     1187.5000  8129494    9.55%
    107    99     1186.6429  1233     1084.0000     1187.5000  8176437    9.55%
    108   100     1186.6429  1279     1084.0000     1187.5000  8234765    9.55%
    109   101     1186.6429  1285     1084.0000     1187.5000  8425333    9.55%
    110   102     1186.6429  1254     1084.0000     1187.5000  8453503    9.55%
    111   103     1186.6429  1266     1084.0000     1187.5000  8494967    9.55%
    112   104     1186.6429  1241     1084.0000     1187.5000  8578370    9.55%
Elapsed time = 2525.36 sec. (1293340.26 ticks, tree = 0.14 MB, solutions = 7)
    113   105     1186.6429  1289     1084.0000     1187.5000  8634813    9.55%
    114   106     1186.6429  1259     1084.0000     1187.5000  8685567    9.55%
    115   107     1186.6429  1252     1084.0000     1187.5000  8808975    9.55%
    116   108     1186.6429  1292     1084.0000     1187.5000  8884203    9.55%
    117   109     1186.6429  1247     1084.0000     1187.5000  8950313    9.55%
    118   110     1186.6429  1313     1084.0000     1187.5000  9025994    9.55%
    119   111     1186.6429  1315     1084.0000     1187.5000  9110333    9.55%
    120   112     1186.6429  1232     1084.0000     1187.5000  9205948    9.55%
    121   113     1186.6429  1250     1084.0000     1187.5000  9286470    9.55%
    122   114     1186.6429  1205     1084.0000     1187.5000  9403746    9.55%
Elapsed time = 2770.91 sec. (1418448.56 ticks, tree = 0.15 MB, solutions = 7)
    123   115     1186.6429  1226     1084.0000     1187.5000  9475421    9.55%
    124   116     1186.6429  1301     1084.0000     1187.5000  9548155    9.55%
    125   117     1186.6429  1267     1084.0000     1187.5000  9624466    9.55%
    126   118     1186.6429  1258     1084.0000     1187.5000  9719185    9.55%
    127   119     1186.6429  1235     1084.0000     1187.5000  9786146    9.55%
    128   120     1186.6429  1237     1084.0000     1187.5000  9862829    9.55%
    129   121     1186.6429  1249     1084.0000     1187.5000  9970568    9.55%
    130   122     1186.6429  1288     1084.0000     1187.5000 10029711    9.55%
    131   123     1186.6429  1251     1084.0000     1187.5000 10089839    9.55%
    133   125     1186.6429  1248     1084.0000     1187.5000 10175961    9.55%
Elapsed time = 2976.51 sec. (1521767.93 ticks, tree = 0.17 MB, solutions = 7)
    134   126     1186.6429  1260     1084.0000     1187.5000 10279141    9.55%
    135   127     1186.6429  1219     1084.0000     1187.5000 10350825    9.55%
    136   128     1186.6429  1227     1084.0000     1187.5000 10472077    9.55%
    137   129     1186.6429  1250     1084.0000     1187.5000 10541570    9.55%
    138   130     1186.6429  1258     1084.0000     1187.5000 10644701    9.55%
    139   131     1186.6429  1277     1084.0000     1187.5000 10680595    9.55%
    140   132     1186.6429  1315     1084.0000     1187.5000 10754051    9.55%
    141   133     1186.6429  1239     1084.0000     1187.5000 10858348    9.55%
    142   134     1186.6429  1201     1084.0000     1187.5000 10939622    9.55%
    143   135     1186.6429  1256     1084.0000     1187.5000 11034316    9.55%
Elapsed time = 3190.82 sec. (1629731.95 ticks, tree = 0.18 MB, solutions = 7)
    144   136     1186.6429  1253     1084.0000     1187.5000 11091244    9.55%
    145   137     1186.6429  1227     1084.0000     1187.5000 11163862    9.55%
    146   138     1186.6429  1159     1084.0000     1187.5000 11237595    9.55%
    147   139     1186.6429  1284     1084.0000     1187.5000 11313591    9.55%
    148   140     1186.6429  1271     1084.0000     1187.5000 11403998    9.55%
    149   141     1186.6429  1298     1084.0000     1187.5000 11472282    9.55%
    150   142     1186.6429  1241     1084.0000     1187.5000 11489839    9.55%
    151   143     1186.6429  1286     1084.0000     1187.5000 11554007    9.55%
    152   144     1186.6429  1253     1084.0000     1187.5000 11599218    9.55%
    153   145     1186.6429  1261     1084.0000     1187.5000 11677846    9.55%
Elapsed time = 3369.16 sec. (1719515.39 ticks, tree = 0.20 MB, solutions = 7)
    154   146     1186.6429  1273     1084.0000     1187.5000 11741307    9.55%
    156   146    infeasible           1084.0000     1187.5000 11780302    9.55%
    157   147     1183.6170  1270     1084.0000     1187.5000 11960461    9.55%
    159   149     1183.5442  1354     1084.0000     1187.5000 11978037    9.55%
*   160+  148                         1140.0000     1187.5000             4.17%
    160   150     1145.0000   513     1140.0000     1187.5000 12099318    4.17%

Clique cuts applied:  21
Implied bound cuts applied:  25
Zero-half cuts applied:  88
Gomory fractional cuts applied:  2

Root node processing (before b&c):
  Real time             =   80.91 sec. (44096.07 ticks)
Sequential b&c:
  Real time             = 3405.22 sec. (1733187.54 ticks)
                          ------------
Total (root+branch&cut) = 3486.13 sec. (1777283.61 ticks)
Solution is feasible.

---------------------
@@@ MIP_optimal
>>> Benchmark mc2024_track1_180.cnf k 5 OPT 1140 TimeCost 3501.1862421035767 TimeSolve 3499.5653257369995 TimeRead 0.005702495574951172 TimeTrans 1.6152138710021973
